1 23 0
2 0 9
3 35 16
4 27 44
5 33 31
6 51 46
7 45 59
8 67 53
9 73 40
10 71 58
11 70 81
12 106 57
13 119 60
14 105 93
15 115 77
16 132 84
17 123 121
18 151 110
19 150 98
20 172 121
21 173 108
22 158 122
23 187 152
24 193 141
25 188 140
26 202 137
27 225 153
28 239 188
29 227 191
30 243 189
31 232 193
32 260 177
33 282 192
34 275 195
35 269 191
36 275 213
37 290 233
38 317 208
39 324 233
40 322 221
41 329 262
42 336 237
43 358 260
44 352 280
45 343 278
46 354 277
47 377 265
48 380 307
49 391 312
50 392 288
51 399 296
52 404 299
53 406 335
54 440 343
55 438 345
56 435 353
57 450 344
58 451 336
59 458 353
60 472 356
61 503 373
62 483 374
63 519 385
64 529 375
65 515 404
66 530 411
67 522 396
68 554 399
69 560 407
70 542 437
71 583 427
72 574 421
73 584 427
74 578 464
75 616 437
76 621 436
77 621 478
78 618 473
79 614 481
80 632 476
81 628 483
82 660 497
83 657 490
84 682 484
85 692 527
86 689 530
87 692 517
88 706 522
89 701 553
90 701 545
91 728 563
92 731 539
93 725 559
94 742 554
95 780 555
96 757 556
97 756 588
98 801 586
99 810 607
100 817 587
101 808 591
102 804 632
103 830 638
104 836 613
105 834 610
106 844 620
107 861 649
108 881 631
109 853 650
110 883 672
111 870 665
112 876 678
113 911 678
114 925 694
115 919 674
116 924 692
117 918 716
118 929 702
119 961 710
120 961 702
121 986 706
122 993 752
123 994 723
124 988 737
125 999 763
126 999 757
127 999 746
128 999 748
129 999 776
130 999 765
131 999 799
132 999 781
133 999 799
134 999 799
135 999 799
136 999 799
137 999 799
138 999 799
139 999 799
140 999 799
141 999 799
142 999 799
143 999 799
144 999 799
145 999 799
146 999 799
147 999 799
148 999 799
149 999 799
150 999 799
151 999 799
152 999 799
153 999 799
154 999 799
155 999 799
156 999 799
157 999 799
158 999 799
159 999 799
160 999 799
161 999 799
162 999 799
163 999 799
164 999 799
165 999 799
166 999 799
167 999 799
168 999 799
169 999 799
170 999 799
171 999 799
172 999 799
173 999 799
174 999 799
175 999 799
176 999 799
177 999 799
178 999 799
179 999 799
180 999 799
181 999 799
182 999 799
183 999 799
184 999 799
185 999 799
186 999 799
187 999 799
188 999 799
189 999 799
190 999 799
191 999 799
192 999 799
193 999 799
194 999 799
195 999 799
196 999 799
197 999 799
198 999 799
199 999 799
200 999 799
201 999 799
202 999 799
203 999 799
204 999 799
205 999 799
206 999 799
207 999 799
208 999 799
209 999 799
210 999 799
211 999 799
212 999 799
213 999 799
214 999 799
215 999 799
216 999 799
217 999 799
218 999 799
219 999 799
220 999 799
221 999 799
222 999 799
223 999 799
224 999 799
225 999 799
226 999 799
227 999 799
228 999 799
229 999 799
230 999 799
231 999 799
232 999 799
233 999 799
234 999 799
235 999 799
236 999 799
237 999 799
238 999 799
239 999 799
240 999 799
241 999 799
242 999 799
243 999 799
244 999 799
245 999 799
246 999 799
247 999 799
248 999 799
249 999 799
250 999 799
251 999 799
252 999 799
253 999 799
254 999 799
255 999 799
256 999 799
257 999 799
258 999 799
259 999 799
260 999 799
261 999 799
262 999 799
263 999 799
264 999 799
265 999 799
266 999 799
267 999 799
268 999 799
269 999 799
270 999 799
271 999 799
272 999 799
273 999 799
274 999 799
275 999 799
276 999 799
277 999 799
278 999 799
279 999 799
280 999 799
281 999 799
282 999 799
283 999 799
284 999 799
285 999 799
286 999 799
287 999 799
288 999 799
289 999 799
290 999 799
291 999 799
292 999 799
293 999 799
294 999 799
295 999 799
296 999 799
297 999 799
298 999 799
299 999 799
300 999 799
301 999 799
302 999 799
303 999 799
304 999 799
305 999 799
306 999 799
307 999 799
308 999 799
309 999 799
310 999 799
311 999 799
312 999 799
313 999 799
314 999 799
315 999 799
316 999 799
317 999 799
318 999 799
